NAME : C2_4_1
TYPE : VRPSPD
DIMENSION : 401
VEHICLES : 15
CAPACITY : 700
DISTANCE : 999999
SCALE : 1000
EDGE_WEIGHT_TYPE : EXACT_2D
NODE_COORD_SECTION
1 100 100
2 37 48
3 42 100
4 131 31
5 108 13
6 17 166
7 147 134
8 48 103
9 127 166
10 50 181
11 19 156
12 146 157
13 93 166
14 170 83
15 79 13
16 73 112
17 87 87
18 118 50
19 79 70
20 67 102
21 48 166
22 45 88
23 61 101
24 54 175
25 126 39
26 107 73
27 42 75
28 74 102
29 72 118
30 65 135
31 27 89
32 84 133
33 178 69
34 127 46
35 28 96
36 100 47
37 69 167
38 98 59
39 79 84
40 61 174
41 138 135
42 170 156
43 119 169
44 66 192
45 120 76
46 29 171
47 89 11
48 170 64
49 135 146
50 85 134
51 19 179
52 95 137
53 163 125
54 30 54
55 16 77
56 28 168
57 78 188
58 27 83
59 136 57
60 59 98
61 170 49
62 114 138
63 78 154
64 69 190
65 60 171
66 112 53
67 99 123
68 28 50
69 97 163
70 150 135
71 136 134
72 120 153
73 79 89
74 162 44
75 163 55
76 103 91
77 74 91
78 126 31
79 16 146
80 84 20
81 21 91
82 37 162
83 89 168
84 72 10
85 55 160
86 63 189
87 164 124
88 20 96
89 82 88
90 76 157
91 74 196
92 85 14
93 77 86
94 142 141
95 119 66
96 7 176
97 92 55
98 168 43
99 89 113
100 98 85
101 46 99
102 62 120
103 93 1
104 144 58
105 20 54
106 32 191
107 143 72
108 68 190
109 140 51
110 119 130
111 37 195
112 29 163
113 120 70
114 12 186
115 118 59
116 90 74
117 165 151
118 125 72
119 177 122
120 64 78
121 67 60
122 167 55
123 173 56
124 179 78
125 83 74
126 140 70
127 81 191
128 101 37
129 34 182
130 99 61
131 168 126
132 139 131
133 134 46
134 66 78
135 71 189
136 70 185
137 16 78
138 57 73
139 92 39
140 5 58
141 75 61
142 186 50
143 14 199
144 80 139
145 110 72
146 40 87
147 155 38
148 155 108
149 152 149
150 55 195
151 86 100
152 36 107
153 103 148
154 29 88
155 32 93
156 79 132
157 25 182
158 25 187
159 23 102
160 128 80
161 165 62
162 34 84
163 82 100
164 162 37
165 138 132
166 65 182
167 53 168
168 114 55
169 24 164
170 74 5
171 109 73
172 102 146
173 144 38
174 93 11
175 73 106
176 51 190
177 106 113
178 81 80
179 138 22
180 69 173
181 75 18
182 166 55
183 89 68
184 126 59
185 88 137
186 99 152
187 178 54
188 132 51
189 100 147
190 36 96
191 6 59
192 102 62
193 55 188
194 135 54
195 6 66
196 88 116
197 29 75
198 143 140
199 15 181
200 130 42
201 17 99
202 182 68
203 27 187
204 40 34
205 57 183
206 64 140
207 2 178
208 34 89
209 149 149
210 147 158
211 110 150
212 83 149
213 42 105
214 83 108
215 20 78
216 38 85
217 101 74
218 82 128
219 73 110
220 81 136
221 91 14
222 96 62
223 130 47
224 14 163
225 21 56
226 88 41
227 20 92
228 73 20
229 95 18
230 17 87
231 123 32
232 124 170
233 84 141
234 116 44
235 133 162
236 74 31
237 107 23
238 25 102
239 97 71
240 83 147
241 38 94
242 149 146
243 93 117
244 124 154
245 115 40
246 84 136
247 88 111
248 143 135
249 143 30
250 148 139
251 68 69
252 97 157
253 146 113
254 118 9
255 125 16
256 81 92
257 148 57
258 89 27
259 165 157
260 70 89
261 25 101
262 6 95
263 89 80
264 76 15
265 3 56
266 82 48
267 81 89
268 20 79
269 30 75
270 160 137
271 150 130
272 156 137
273 169 54
274 13 90
275 49 64
276 39 99
277 91 43
278 60 197
279 15 69
280 101 164
281 153 161
282 11 83
283 127 55
284 33 103
285 43 101
286 175 70
287 122 144
288 68 16
289 93 32
290 164 61
291 79 31
292 69 178
293 86 155
294 87 67
295 99 48
296 72 8
297 108 82
298 69 121
299 67 13
300 33 73
301 68 176
302 106 127
303 106 60
304 35 90
305 84 13
306 133 168
307 21 76
308 67 89
309 67 97
310 69 40
311 13 120
312 68 173
313 190 122
314 104 59
315 117 53
316 84 25
317 109 169
318 120 50
319 52 79
320 69 99
321 91 39
322 108 26
323 116 171
324 65 164
325 106 83
326 55 97
327 39 79
328 13 173
329 95 29
330 160 136
331 105 55
332 146 62
333 73 196
334 95 150
335 26 169
336 161 139
337 77 126
338 66 81
339 132 36
340 101 152
341 94 75
342 158 122
343 81 20
344 180 126
345 47 76
346 60 37
347 35 185
348 36 177
349 48 191
350 169 36
351 177 45
352 72 119
353 26 107
354 15 57
355 54 73
356 68 152
357 93 26
358 40 101
359 111 24
360 46 128
361 177 55
362 132 139
363 101 62
364 97 116
365 81 83
366 57 59
367 91 49
368 81 32
369 47 80
370 119 62
371 43 98
372 101 55
373 31 63
374 145 144
375 56 192
376 101 158
377 30 86
378 33 188
379 156 64
380 154 44
381 171 63
382 139 169
383 121 52
384 139 102
385 84 10
386 7 63
387 184 55
388 58 168
389 156 135
390 165 52
391 128 141
392 79 106
393 102 56
394 87 132
395 23 172
396 64 172
397 82 104
398 99 156
399 146 142
400 14 81
401 79 19
PICKUP_AND_DELIVERY_SECTION
1 0 0 10000000 0 0 0
2 0 0 10000000 0 30 10
3 0 0 10000000 0 10 30
4 0 0 10000000 0 10 10
5 0 0 10000000 0 20 20
6 0 0 10000000 0 20 10
7 0 0 10000000 0 30 20
8 0 0 10000000 0 40 10
9 0 0 10000000 0 40 20
10 0 0 10000000 0 40 20
11 0 0 10000000 0 20 10
12 0 0 10000000 0 20 40
13 0 0 10000000 0 20 10
14 0 0 10000000 0 10 30
15 0 0 10000000 0 20 20
16 0 0 10000000 0 20 10
17 0 0 10000000 0 10 10
18 0 0 10000000 0 30 10
19 0 0 10000000 0 20 20
20 0 0 10000000 0 20 40
21 0 0 10000000 0 20 30
22 0 0 10000000 0 30 30
23 0 0 10000000 0 30 10
24 0 0 10000000 0 30 20
25 0 0 10000000 0 20 10
26 0 0 10000000 0 10 30
27 0 0 10000000 0 10 20
28 0 0 10000000 0 20 10
29 0 0 10000000 0 40 20
30 0 0 10000000 0 40 20
31 0 0 10000000 0 10 10
32 0 0 10000000 0 20 10
33 0 0 10000000 0 10 40
34 0 0 10000000 0 20 20
35 0 0 10000000 0 40 20
36 0 0 10000000 0 40 20
37 0 0 10000000 0 40 20
38 0 0 10000000 0 10 10
39 0 0 10000000 0 30 10
40 0 0 10000000 0 20 10
41 0 0 10000000 0 40 10
42 0 0 10000000 0 30 10
43 0 0 10000000 0 30 20
44 0 0 10000000 0 10 20
45 0 0 10000000 0 10 30
46 0 0 10000000 0 10 20
47 0 0 10000000 0 30 10
48 0 0 10000000 0 40 20
49 0 0 10000000 0 30 10
50 0 0 10000000 0 20 20
51 0 0 10000000 0 20 30
52 0 0 10000000 0 10 10
53 0 0 10000000 0 10 30
54 0 0 10000000 0 20 30
55 0 0 10000000 0 10 20
56 0 0 10000000 0 20 20
57 0 0 10000000 0 30 20
58 0 0 10000000 0 40 20
59 0 0 10000000 0 30 30
60 0 0 10000000 0 10 10
61 0 0 10000000 0 40 30
62 0 0 10000000 0 20 20
63 0 0 10000000 0 10 10
64 0 0 10000000 0 30 30
65 0 0 10000000 0 30 20
66 0 0 10000000 0 20 10
67 0 0 10000000 0 10 10
68 0 0 10000000 0 20 10
69 0 0 10000000 0 10 20
70 0 0 10000000 0 30 20
71 0 0 10000000 0 10 10
72 0 0 10000000 0 20 10
73 0 0 10000000 0 40 10
74 0 0 10000000 0 40 20
75 0 0 10000000 0 40 20
76 0 0 10000000 0 20 20
77 0 0 10000000 0 40 20
78 0 0 10000000 0 40 20
79 0 0 10000000 0 40 10
80 0 0 10000000 0 20 10
81 0 0 10000000 0 30 20
82 0 0 10000000 0 40 20
83 0 0 10000000 0 10 20
84 0 0 10000000 0 30 20
85 0 0 10000000 0 30 10
86 0 0 10000000 0 20 30
87 0 0 10000000 0 30 20
88 0 0 10000000 0 20 20
89 0 0 10000000 0 30 20
90 0 0 10000000 0 30 20
91 0 0 10000000 0 40 30
92 0 0 10000000 0 40 10
93 0 0 10000000 0 10 20
94 0 0 10000000 0 30 20
95 0 0 10000000 0 10 10
96 0 0 10000000 0 30 10
97 0 0 10000000 0 30 20
98 0 0 10000000 0 20 10
99 0 0 10000000 0 30 10
100 0 0 10000000 0 20 30
101 0 0 10000000 0 10 10
102 0 0 10000000 0 30 30
103 0 0 10000000 0 30 20
104 0 0 10000000 0 20 30
105 0 0 10000000 0 10 20
106 0 0 10000000 0 10 10
107 0 0 10000000 0 20 20
108 0 0 10000000 0 30 20
109 0 0 10000000 0 40 10
110 0 0 10000000 0 30 20
111 0 0 10000000 0 10 10
112 0 0 10000000 0 20 30
113 0 0 10000000 0 10 10
114 0 0 10000000 0 40 10
115 0 0 10000000 0 40 10
116 0 0 10000000 0 10 10
117 0 0 10000000 0 10 20
118 0 0 10000000 0 30 20
119 0 0 10000000 0 40 30
120 0 0 10000000 0 40 10
121 0 0 10000000 0 20 10
122 0 0 10000000 0 10 30
123 0 0 10000000 0 20 20
124 0 0 10000000 0 20 20
125 0 0 10000000 0 30 40
126 0 0 10000000 0 30 30
127 0 0 10000000 0 40 20
128 0 0 10000000 0 40 30
129 0 0 10000000 0 10 20
130 0 0 10000000 0 20 20
131 0 0 10000000 0 10 20
132 0 0 10000000 0 30 20
133 0 0 10000000 0 40 20
134 0 0 10000000 0 10 30
135 0 0 10000000 0 40 10
136 0 0 10000000 0 10 20
137 0 0 10000000 0 40 30
138 0 0 10000000 0 30 30
139 0 0 10000000 0 40 10
140 0 0 10000000 0 30 20
141 0 0 10000000 0 40 20
142 0 0 10000000 0 10 20
143 0 0 10000000 0 30 30
144 0 0 10000000 0 20 30
145 0 0 10000000 0 20 10
146 0 0 10000000 0 10 20
147 0 0 10000000 0 20 10
148 0 0 10000000 0 40 20
149 0 0 10000000 0 10 20
150 0 0 10000000 0 20 20
151 0 0 10000000 0 40 10
152 0 0 10000000 0 20 20
153 0 0 10000000 0 40 20
154 0 0 10000000 0 30 10
155 0 0 10000000 0 20 20
156 0 0 10000000 0 40 20
157 0 0 10000000 0 10 10
158 0 0 10000000 0 20 30
159 0 0 10000000 0 20 30
160 0 0 10000000 0 30 10
161 0 0 10000000 0 40 20
162 0 0 10000000 0 10 10
163 0 0 10000000 0 10 10
164 0 0 10000000 0 30 40
165 0 0 10000000 0 40 10
166 0 0 10000000 0 20 20
167 0 0 10000000 0 30 20
168 0 0 10000000 0 20 10
169 0 0 10000000 0 30 30
170 0 0 10000000 0 10 20
171 0 0 10000000 0 40 10
172 0 0 10000000 0 20 10
173 0 0 10000000 0 30 30
174 0 0 10000000 0 40 20
175 0 0 10000000 0 40 10
176 0 0 10000000 0 20 30
177 0 0 10000000 0 30 30
178 0 0 10000000 0 40 10
179 0 0 10000000 0 20 30
180 0 0 10000000 0 40 40
181 0 0 10000000 0 20 30
182 0 0 10000000 0 30 10
183 0 0 10000000 0 10 10
184 0 0 10000000 0 40 20
185 0 0 10000000 0 40 10
186 0 0 10000000 0 10 40
187 0 0 10000000 0 10 20
188 0 0 10000000 0 10 20
189 0 0 10000000 0 40 10
190 0 0 10000000 0 20 10
191 0 0 10000000 0 40 20
192 0 0 10000000 0 30 30
193 0 0 10000000 0 30 30
194 0 0 10000000 0 10 30
195 0 0 10000000 0 40 20
196 0 0 10000000 0 20 30
197 0 0 10000000 0 30 20
198 0 0 10000000 0 30 10
199 0 0 10000000 0 30 20
200 0 0 10000000 0 10 30
201 0 0 10000000 0 10 20
202 0 0 10000000 0 20 10
203 0 0 10000000 0 10 30
204 0 0 10000000 0 40 10
205 0 0 10000000 0 20 10
206 0 0 10000000 0 10 20
207 0 0 10000000 0 40 10
208 0 0 10000000 0 30 20
209 0 0 10000000 0 10 20
210 0 0 10000000 0 40 10
211 0 0 10000000 0 10 20
212 0 0 10000000 0 40 20
213 0 0 10000000 0 30 20
214 0 0 10000000 0 10 10
215 0 0 10000000 0 10 20
216 0 0 10000000 0 10 20
217 0 0 10000000 0 20 30
218 0 0 10000000 0 20 20
219 0 0 10000000 0 40 20
220 0 0 10000000 0 10 20
221 0 0 10000000 0 40 20
222 0 0 10000000 0 30 10
223 0 0 10000000 0 10 10
224 0 0 10000000 0 30 30
225 0 0 10000000 0 20 40
226 0 0 10000000 0 10 10
227 0 0 10000000 0 20 20
228 0 0 10000000 0 10 10
229 0 0 10000000 0 30 30
230 0 0 10000000 0 30 10
231 0 0 10000000 0 10 30
232 0 0 10000000 0 10 10
233 0 0 10000000 0 30 30
234 0 0 10000000 0 20 20
235 0 0 10000000 0 20 10
236 0 0 10000000 0 30 10
237 0 0 10000000 0 40 20
238 0 0 10000000 0 40 20
239 0 0 10000000 0 40 10
240 0 0 10000000 0 10 20
241 0 0 10000000 0 10 10
242 0 0 10000000 0 30 10
243 0 0 10000000 0 30 40
244 0 0 10000000 0 20 10
245 0 0 10000000 0 30 20
246 0 0 10000000 0 20 20
247 0 0 10000000 0 40 20
248 0 0 10000000 0 20 10
249 0 0 10000000 0 30 30
250 0 0 10000000 0 30 20
251 0 0 10000000 0 30 30
252 0 0 10000000 0 40 20
253 0 0 10000000 0 40 20
254 0 0 10000000 0 20 10
255 0 0 10000000 0 20 10
256 0 0 10000000 0 10 20
257 0 0 10000000 0 30 10
258 0 0 10000000 0 20 20
259 0 0 10000000 0 20 20
260 0 0 10000000 0 10 20
261 0 0 10000000 0 40 10
262 0 0 10000000 0 40 10
263 0 0 10000000 0 30 20
264 0 0 10000000 0 40 20
265 0 0 10000000 0 30 20
266 0 0 10000000 0 40 30
267 0 0 10000000 0 30 20
268 0 0 10000000 0 40 30
269 0 0 10000000 0 40 10
270 0 0 10000000 0 40 10
271 0 0 10000000 0 30 20
272 0 0 10000000 0 40 20
273 0 0 10000000 0 20 10
274 0 0 10000000 0 40 20
275 0 0 10000000 0 10 20
276 0 0 10000000 0 40 20
277 0 0 10000000 0 30 10
278 0 0 10000000 0 10 20
279 0 0 10000000 0 40 20
280 0 0 10000000 0 20 10
281 0 0 10000000 0 40 20
282 0 0 10000000 0 30 10
283 0 0 10000000 0 20 20
284 0 0 10000000 0 10 10
285 0 0 10000000 0 10 30
286 0 0 10000000 0 10 20
287 0 0 10000000 0 20 20
288 0 0 10000000 0 40 10
289 0 0 10000000 0 20 20
290 0 0 10000000 0 30 10
291 0 0 10000000 0 30 10
292 0 0 10000000 0 30 20
293 0 0 10000000 0 30 30
294 0 0 10000000 0 30 30
295 0 0 10000000 0 10 10
296 0 0 10000000 0 40 20
297 0 0 10000000 0 10 30
298 0 0 10000000 0 10 20
299 0 0 10000000 0 30 30
300 0 0 10000000 0 10 20
301 0 0 10000000 0 30 10
302 0 0 10000000 0 10 30
303 0 0 10000000 0 40 10
304 0 0 10000000 0 40 10
305 0 0 10000000 0 20 10
306 0 0 10000000 0 20 10
307 0 0 10000000 0 10 20
308 0 0 10000000 0 30 30
309 0 0 10000000 0 30 10
310 0 0 10000000 0 40 10
311 0 0 10000000 0 20 20
312 0 0 10000000 0 40 30
313 0 0 10000000 0 40 10
314 0 0 10000000 0 10 10
315 0 0 10000000 0 20 20
316 0 0 10000000 0 30 10
317 0 0 10000000 0 20 10
318 0 0 10000000 0 20 10
319 0 0 10000000 0 30 20
320 0 0 10000000 0 30 10
321 0 0 10000000 0 30 10
322 0 0 10000000 0 40 10
323 0 0 10000000 0 40 20
324 0 0 10000000 0 20 20
325 0 0 10000000 0 20 20
326 0 0 10000000 0 30 20
327 0 0 10000000 0 40 10
328 0 0 10000000 0 10 30
329 0 0 10000000 0 30 10
330 0 0 10000000 0 20 20
331 0 0 10000000 0 40 20
332 0 0 10000000 0 10 20
333 0 0 10000000 0 20 20
334 0 0 10000000 0 40 30
335 0 0 10000000 0 20 20
336 0 0 10000000 0 40 20
337 0 0 10000000 0 10 20
338 0 0 10000000 0 40 10
339 0 0 10000000 0 10 20
340 0 0 10000000 0 40 20
341 0 0 10000000 0 20 20
342 0 0 10000000 0 20 30
343 0 0 10000000 0 20 20
344 0 0 10000000 0 20 10
345 0 0 10000000 0 20 30
346 0 0 10000000 0 20 30
347 0 0 10000000 0 20 10
348 0 0 10000000 0 40 30
349 0 0 10000000 0 30 10
350 0 0 10000000 0 30 10
351 0 0 10000000 0 10 30
352 0 0 10000000 0 20 20
353 0 0 10000000 0 10 20
354 0 0 10000000 0 30 10
355 0 0 10000000 0 40 30
356 0 0 10000000 0 20 30
357 0 0 10000000 0 10 20
358 0 0 10000000 0 40 10
359 0 0 10000000 0 30 10
360 0 0 10000000 0 10 30
361 0 0 10000000 0 10 10
362 0 0 10000000 0 40 10
363 0 0 10000000 0 20 40
364 0 0 10000000 0 10 30
365 0 0 10000000 0 20 20
366 0 0 10000000 0 40 30
367 0 0 10000000 0 40 10
368 0 0 10000000 0 40 10
369 0 0 10000000 0 40 10
370 0 0 10000000 0 30 10
371 0 0 10000000 0 10 30
372 0 0 10000000 0 10 30
373 0 0 10000000 0 30 30
374 0 0 10000000 0 30 10
375 0 0 10000000 0 30 20
376 0 0 10000000 0 40 20
377 0 0 10000000 0 10 20
378 0 0 10000000 0 20 30
379 0 0 10000000 0 40 10
380 0 0 10000000 0 10 30
381 0 0 10000000 0 20 20
382 0 0 10000000 0 40 30
383 0 0 10000000 0 30 40
384 0 0 10000000 0 30 10
385 0 0 10000000 0 20 40
386 0 0 10000000 0 10 10
387 0 0 10000000 0 10 10
388 0 0 10000000 0 40 20
389 0 0 10000000 0 20 20
390 0 0 10000000 0 20 20
391 0 0 10000000 0 40 10
392 0 0 10000000 0 30 20
393 0 0 10000000 0 10 30
394 0 0 10000000 0 10 20
395 0 0 10000000 0 20 10
396 0 0 10000000 0 20 10
397 0 0 10000000 0 20 10
398 0 0 10000000 0 30 30
399 0 0 10000000 0 30 10
400 0 0 10000000 0 30 30
401 0 0 10000000 0 10 10
DEPOT_SECTION
1 
-1
EOF
